; Copyright (c) 2026 The RIINA Authors. All rights reserved.
; Auto-generated from 02_FORMAL/coq/domains/SelfHealing.v (25 validations)
; Generated by scripts/generate-full-stack.py
;
; Translation Validation for SelfHealing
; Layer 9: Verifies compiler backend preserves formal semantics.
; Each assertion checks source IR ≡ target code for a proven property.

(set-logic QF_LIA)
(set-option :produce-models true)

; IR node representation
(declare-sort IRNode 0)
(declare-sort TargetNode 0)

; detection_complete: source semantics (matches Coq)
(declare-fun source_detection_complete () Bool)
(declare-fun target_detection_complete () Bool)
(assert (= source_detection_complete target_detection_complete))

; severity_bounded: source semantics (matches Coq)
(declare-fun source_severity_bounded () Bool)
(declare-fun target_severity_bounded () Bool)
(assert (= source_severity_bounded target_severity_bounded))

; timeout_ok: source semantics (matches Coq)
(declare-fun source_timeout_ok () Bool)
(declare-fun target_timeout_ok () Bool)
(assert (= source_timeout_ok target_timeout_ok))

; plan_has_actions: source semantics (matches Coq)
(declare-fun source_plan_has_actions () Bool)
(declare-fun target_plan_has_actions () Bool)
(assert (= source_plan_has_actions target_plan_has_actions))

; checkpoint_fresh: source semantics (matches Coq)
(declare-fun source_checkpoint_fresh () Bool)
(declare-fun target_checkpoint_fresh () Bool)
(assert (= source_checkpoint_fresh target_checkpoint_fresh))

; hash_valid: source semantics (matches Coq)
(declare-fun source_hash_valid () Bool)
(declare-fun target_hash_valid () Bool)
(assert (= source_hash_valid target_hash_valid))

; degradation_valid: source semantics (matches Coq)
(declare-fun source_degradation_valid () Bool)
(declare-fun target_degradation_valid () Bool)
(assert (= source_degradation_valid target_degradation_valid))

; capability_bounded: source semantics (matches Coq)
(declare-fun source_capability_bounded () Bool)
(declare-fun target_capability_bounded () Bool)
(assert (= source_capability_bounded target_capability_bounded))

; component_isolated: source semantics (matches Coq)
(declare-fun source_component_isolated () Bool)
(declare-fun target_component_isolated () Bool)
(assert (= source_component_isolated target_component_isolated))

; failover_available: source semantics (matches Coq)
(declare-fun source_failover_available () Bool)
(declare-fun target_failover_available () Bool)
(assert (= source_failover_available target_failover_available))

; recovery_complete: source semantics (matches Coq)
(declare-fun source_recovery_complete () Bool)
(declare-fun target_recovery_complete () Bool)
(assert (= source_recovery_complete target_recovery_complete))

; recurrence_prevented: source semantics (matches Coq)
(declare-fun source_recurrence_prevented () Bool)
(declare-fun target_recurrence_prevented () Bool)
(assert (= source_recurrence_prevented target_recurrence_prevented))

; degradation_ordered: source semantics (matches Coq)
(declare-fun source_degradation_ordered () Bool)
(declare-fun target_degradation_ordered () Bool)
(assert (= source_degradation_ordered target_degradation_ordered))

; min_capability_ok: source semantics (matches Coq)
(declare-fun source_min_capability_ok () Bool)
(declare-fun target_min_capability_ok () Bool)
(assert (= source_min_capability_ok target_min_capability_ok))

; attack_detected: source semantics (matches Coq)
(declare-fun source_attack_detected () Bool)
(declare-fun target_attack_detected () Bool)
(assert (= source_attack_detected target_attack_detected))

; attack_contained: source semantics (matches Coq)
(declare-fun source_attack_contained () Bool)
(declare-fun target_attack_contained () Bool)
(assert (= source_attack_contained target_attack_contained))

; evidence_preserved: source semantics (matches Coq)
(declare-fun source_evidence_preserved () Bool)
(declare-fun target_evidence_preserved () Bool)
(assert (= source_evidence_preserved target_evidence_preserved))

; rto_met: source semantics (matches Coq)
(declare-fun source_rto_met () Bool)
(declare-fun target_rto_met () Bool)
(assert (= source_rto_met target_rto_met))

; rpo_met: source semantics (matches Coq)
(declare-fun source_rpo_met () Bool)
(declare-fun target_rpo_met () Bool)
(assert (= source_rpo_met target_rpo_met))

; redundancy_ok: source semantics (matches Coq)
(declare-fun source_redundancy_ok () Bool)
(declare-fun target_redundancy_ok () Bool)
(assert (= source_redundancy_ok target_redundancy_ok))

; audit_complete: source semantics (matches Coq)
(declare-fun source_audit_complete () Bool)
(declare-fun target_audit_complete () Bool)
(assert (= source_audit_complete target_audit_complete))

; learning_applied: source semantics (matches Coq)
(declare-fun source_learning_applied () Bool)
(declare-fun target_learning_applied () Bool)
(assert (= source_learning_applied target_learning_applied))

; healing_layers: source semantics (matches Coq)
(declare-fun source_healing_layers () Bool)
(declare-fun target_healing_layers () Bool)
(assert (= source_healing_layers target_healing_layers))

; heal_001_detection_complete: translation preserves property (matches Coq: Theorem)
(declare-fun source_heal_001_detection_complete () Bool)
(declare-fun target_heal_001_detection_complete () Bool)
(assert (= source_heal_001_detection_complete target_heal_001_detection_complete))

; heal_002_severity_bounded: translation preserves property (matches Coq: Theorem)
(declare-fun source_heal_002_severity_bounded () Bool)
(declare-fun target_heal_002_severity_bounded () Bool)
(assert (= source_heal_002_severity_bounded target_heal_002_severity_bounded))

; heal_003_plan_verified: translation preserves property (matches Coq: Theorem)
(declare-fun source_heal_003_plan_verified () Bool)
(declare-fun target_heal_003_plan_verified () Bool)
(assert (= source_heal_003_plan_verified target_heal_003_plan_verified))

; heal_004_timeout_bounded: translation preserves property (matches Coq: Theorem)
(declare-fun source_heal_004_timeout_bounded () Bool)
(declare-fun target_heal_004_timeout_bounded () Bool)
(assert (= source_heal_004_timeout_bounded target_heal_004_timeout_bounded))

; heal_005_actions_exist: translation preserves property (matches Coq: Theorem)
(declare-fun source_heal_005_actions_exist () Bool)
(declare-fun target_heal_005_actions_exist () Bool)
(assert (= source_heal_005_actions_exist target_heal_005_actions_exist))

; heal_006_checkpoint_verified: translation preserves property (matches Coq: Theorem)
(declare-fun source_heal_006_checkpoint_verified () Bool)
(declare-fun target_heal_006_checkpoint_verified () Bool)
(assert (= source_heal_006_checkpoint_verified target_heal_006_checkpoint_verified))

; heal_007_checkpoint_fresh: translation preserves property (matches Coq: Theorem)
(declare-fun source_heal_007_checkpoint_fresh () Bool)
(declare-fun target_heal_007_checkpoint_fresh () Bool)
(assert (= source_heal_007_checkpoint_fresh target_heal_007_checkpoint_fresh))

; heal_008_hash_valid: translation preserves property (matches Coq: Theorem)
(declare-fun source_heal_008_hash_valid () Bool)
(declare-fun target_heal_008_hash_valid () Bool)
(assert (= source_heal_008_hash_valid target_heal_008_hash_valid))

; heal_009_degradation_valid: translation preserves property (matches Coq: Theorem)
(declare-fun source_heal_009_degradation_valid () Bool)
(declare-fun target_heal_009_degradation_valid () Bool)
(assert (= source_heal_009_degradation_valid target_heal_009_degradation_valid))

; heal_010_capability_bounded: translation preserves property (matches Coq: Theorem)
(declare-fun source_heal_010_capability_bounded () Bool)
(declare-fun target_heal_010_capability_bounded () Bool)
(assert (= source_heal_010_capability_bounded target_heal_010_capability_bounded))

; heal_011_isolation_effective: translation preserves property (matches Coq: Theorem)
(declare-fun source_heal_011_isolation_effective () Bool)
(declare-fun target_heal_011_isolation_effective () Bool)
(assert (= source_heal_011_isolation_effective target_heal_011_isolation_effective))

; heal_012_failover_available: translation preserves property (matches Coq: Theorem)
(declare-fun source_heal_012_failover_available () Bool)
(declare-fun target_heal_012_failover_available () Bool)
(assert (= source_heal_012_failover_available target_heal_012_failover_available))

; heal_013_recovery_completes: translation preserves property (matches Coq: Theorem)
(declare-fun source_heal_013_recovery_completes () Bool)
(declare-fun target_heal_013_recovery_completes () Bool)
(assert (= source_heal_013_recovery_completes target_heal_013_recovery_completes))

; heal_014_no_recurrence: translation preserves property (matches Coq: Theorem)
(declare-fun source_heal_014_no_recurrence () Bool)
(declare-fun target_heal_014_no_recurrence () Bool)
(assert (= source_heal_014_no_recurrence target_heal_014_no_recurrence))

; heal_015_graceful_order: translation preserves property (matches Coq: Theorem)
(declare-fun source_heal_015_graceful_order () Bool)
(declare-fun target_heal_015_graceful_order () Bool)
(assert (= source_heal_015_graceful_order target_heal_015_graceful_order))

; heal_016_min_capability: translation preserves property (matches Coq: Theorem)
(declare-fun source_heal_016_min_capability () Bool)
(declare-fun target_heal_016_min_capability () Bool)
(assert (= source_heal_016_min_capability target_heal_016_min_capability))

; heal_017_attack_detected: translation preserves property (matches Coq: Theorem)
(declare-fun source_heal_017_attack_detected () Bool)
(declare-fun target_heal_017_attack_detected () Bool)
(assert (= source_heal_017_attack_detected target_heal_017_attack_detected))

; heal_018_attack_contained: translation preserves property (matches Coq: Theorem)
(declare-fun source_heal_018_attack_contained () Bool)
(declare-fun target_heal_018_attack_contained () Bool)
(assert (= source_heal_018_attack_contained target_heal_018_attack_contained))

; heal_019_evidence_preserved: translation preserves property (matches Coq: Theorem)
(declare-fun source_heal_019_evidence_preserved () Bool)
(declare-fun target_heal_019_evidence_preserved () Bool)
(assert (= source_heal_019_evidence_preserved target_heal_019_evidence_preserved))

; heal_020_rto_met: translation preserves property (matches Coq: Theorem)
(declare-fun source_heal_020_rto_met () Bool)
(declare-fun target_heal_020_rto_met () Bool)
(assert (= source_heal_020_rto_met target_heal_020_rto_met))

; heal_021_rpo_met: translation preserves property (matches Coq: Theorem)
(declare-fun source_heal_021_rpo_met () Bool)
(declare-fun target_heal_021_rpo_met () Bool)
(assert (= source_heal_021_rpo_met target_heal_021_rpo_met))

; heal_022_redundancy: translation preserves property (matches Coq: Theorem)
(declare-fun source_heal_022_redundancy () Bool)
(declare-fun target_heal_022_redundancy () Bool)
(assert (= source_heal_022_redundancy target_heal_022_redundancy))

; heal_023_audit_complete: translation preserves property (matches Coq: Theorem)
(declare-fun source_heal_023_audit_complete () Bool)
(declare-fun target_heal_023_audit_complete () Bool)
(assert (= source_heal_023_audit_complete target_heal_023_audit_complete))

; heal_024_learning_applied: translation preserves property (matches Coq: Theorem)
(declare-fun source_heal_024_learning_applied () Bool)
(declare-fun target_heal_024_learning_applied () Bool)
(assert (= source_heal_024_learning_applied target_heal_024_learning_applied))

; heal_025_defense_in_depth: translation preserves property (matches Coq: Theorem)
(declare-fun source_heal_025_defense_in_depth () Bool)
(declare-fun target_heal_025_defense_in_depth () Bool)
(assert (= source_heal_025_defense_in_depth target_heal_025_defense_in_depth))

; Verify all translation validations are satisfiable
(check-sat)
(exit)
